problems/VanDerWaerdenNumbers/VanDerWaerden-models/noch/O2/lingeling/model_2-k3l4n31-solution000001.solution
language Essence 1.3

letting p be
        partition({1, 2, 3, 10, 11, 12, 17, 21, 22, 23, 25}, {4, 5, 6, 8, 9, 13, 15, 16, 19, 24, 28, 31},
                  {7, 14, 18, 20, 26, 27, 29, 30})
